c Result of efficient AIG-to-CNF conversion using package CNF
p cnf 688 1916
1 644 646 0
-1 -644 0
-1 -646 0
2 -644 660 0
-2 644 0
-2 -660 0
3 1 2 0
-3 -1 0
-3 -2 0
4 646 -683 0
-4 -646 0
-4 683 0
5 683 3 0
-5 -683 0
-5 -3 0
6 4 5 0
-6 -4 0
-6 -5 0
7 644 647 0
-7 -644 0
-7 -647 0
8 -644 661 0
-8 644 0
-8 -661 0
9 7 8 0
-9 -7 0
-9 -8 0
10 644 648 0
-10 -644 0
-10 -648 0
11 -644 662 0
-11 644 0
-11 -662 0
12 10 11 0
-12 -10 0
-12 -11 0
13 644 649 0
-13 -644 0
-13 -649 0
14 -644 663 0
-14 644 0
-14 -663 0
15 13 14 0
-15 -13 0
-15 -14 0
16 649 -684 0
-16 -649 0
-16 684 0
17 684 15 0
-17 -684 0
-17 -15 0
18 16 17 0
-18 -16 0
-18 -17 0
19 644 650 0
-19 -644 0
-19 -650 0
20 -644 664 0
-20 644 0
-20 -664 0
21 19 20 0
-21 -19 0
-21 -20 0
22 644 651 0
-22 -644 0
-22 -651 0
23 -644 665 0
-23 644 0
-23 -665 0
24 22 23 0
-24 -22 0
-24 -23 0
25 644 -685 0
-25 -644 0
-25 685 0
26 685 24 0
-26 -685 0
-26 -24 0
27 25 26 0
-27 -25 0
-27 -26 0
28 -644 666 0
-28 644 0
-28 -666 0
29 640 644 0
-29 -640 0
-29 -644 0
30 28 29 0
-30 -28 0
-30 -29 0
31 639 -644 0
-31 -639 0
-31 644 0
32 642 644 0
-32 -642 0
-32 -644 0
33 31 32 0
-33 -31 0
-33 -32 0
34 -645 -652 0
-34 645 0
-34 652 0
35 641 -34 0
-35 -641 0
-35 34 0
36 645 -660 0
-36 -645 0
-36 660 0
37 641 -36 0
-37 -641 0
-37 36 0
38 643 -646 0
-38 -643 0
-38 646 0
39 -643 646 0
-39 643 0
-39 -646 0
40 38 39 0
-40 -38 0
-40 -39 0
41 -641 -40 0
-41 641 0
-41 40 0
42 643 -686 0
-42 -643 0
-42 686 0
43 686 41 0
-43 -686 0
-43 -41 0
44 42 43 0
-44 -42 0
-44 -43 0
45 35 37 0
-45 -35 0
-45 -37 0
46 44 -45 0
-46 -44 0
-46 45 0
47 641 -674 0
-47 -641 0
-47 674 0
48 674 46 0
-48 -674 0
-48 -46 0
49 47 48 0
-49 -47 0
-49 -48 0
50 643 646 0
-50 -643 0
-50 -646 0
51 647 50 0
-51 -647 0
-51 -50 0
52 -647 -50 0
-52 647 0
-52 50 0
53 51 52 0
-53 -51 0
-53 -52 0
54 645 661 0
-54 -645 0
-54 -661 0
55 -645 653 0
-55 645 0
-55 -653 0
56 54 55 0
-56 -54 0
-56 -55 0
57 641 -56 0
-57 -641 0
-57 56 0
58 641 -682 0
-58 -641 0
-58 682 0
59 682 57 0
-59 -682 0
-59 -57 0
60 58 59 0
-60 -58 0
-60 -59 0
61 -641 -53 0
-61 641 0
-61 53 0
62 60 61 0
-62 -60 0
-62 -61 0
63 646 -673 0
-63 -646 0
-63 673 0
64 673 62 0
-64 -673 0
-64 -62 0
65 63 64 0
-65 -63 0
-65 -64 0
66 646 647 0
-66 -646 0
-66 -647 0
67 643 -66 0
-67 -643 0
-67 66 0
68 -648 67 0
-68 648 0
-68 -67 0
69 -641 68 0
-69 641 0
-69 -68 0
70 647 648 0
-70 -647 0
-70 -648 0
71 646 -70 0
-71 -646 0
-71 70 0
72 643 -71 0
-72 -643 0
-72 71 0
73 645 662 0
-73 -645 0
-73 -662 0
74 641 -73 0
-74 -641 0
-74 73 0
75 -645 654 0
-75 645 0
-75 -654 0
76 641 -75 0
-76 -641 0
-76 75 0
77 74 76 0
-77 -74 0
-77 -76 0
78 654 -681 0
-78 -654 0
-78 681 0
79 681 77 0
-79 -681 0
-79 -77 0
80 78 79 0
-80 -78 0
-80 -79 0
81 -69 72 0
-81 69 0
-81 -72 0
82 -80 81 0
-82 80 0
-82 -81 0
83 641 -670 0
-83 -641 0
-83 670 0
84 670 -82 0
-84 -670 0
-84 82 0
85 83 84 0
-85 -83 0
-85 -84 0
86 648 649 0
-86 -648 0
-86 -649 0
87 -67 -86 0
-87 67 0
-87 86 0
88 -641 87 0
-88 641 0
-88 -87 0
89 -649 72 0
-89 649 0
-89 -72 0
90 645 663 0
-90 -645 0
-90 -663 0
91 641 -90 0
-91 -641 0
-91 90 0
92 -645 655 0
-92 645 0
-92 -655 0
93 641 -92 0
-93 -641 0
-93 92 0
94 91 93 0
-94 -91 0
-94 -93 0
95 641 -678 0
-95 -641 0
-95 678 0
96 678 94 0
-96 -678 0
-96 -94 0
97 95 96 0
-97 -95 0
-97 -96 0
98 -88 89 0
-98 88 0
-98 -89 0
99 -97 98 0
-99 97 0
-99 -98 0
100 646 -672 0
-100 -646 0
-100 672 0
101 672 -99 0
-101 -672 0
-101 99 0
102 100 101 0
-102 -100 0
-102 -101 0
103 -50 -86 0
-103 50 0
-103 86 0
104 647 -103 0
-104 -647 0
-104 103 0
105 -650 104 0
-105 650 0
-105 -104 0
106 -641 105 0
-106 641 0
-106 -105 0
107 650 -103 0
-107 -650 0
-107 103 0
108 647 -107 0
-108 -647 0
-108 107 0
109 645 664 0
-109 -645 0
-109 -664 0
110 641 -109 0
-110 -641 0
-110 109 0
111 -645 656 0
-111 645 0
-111 -656 0
112 641 -111 0
-112 -641 0
-112 111 0
113 110 112 0
-113 -110 0
-113 -112 0
114 641 -677 0
-114 -641 0
-114 677 0
115 677 113 0
-115 -677 0
-115 -113 0
116 114 115 0
-116 -114 0
-116 -115 0
117 -106 108 0
-117 106 0
-117 -108 0
118 -116 117 0
-118 116 0
-118 -117 0
119 646 -669 0
-119 -646 0
-119 669 0
120 669 -118 0
-120 -669 0
-120 118 0
121 119 120 0
-121 -119 0
-121 -120 0
122 650 651 0
-122 -650 0
-122 -651 0
123 -86 -122 0
-123 86 0
-123 122 0
124 -50 -123 0
-124 50 0
-124 123 0
125 647 -124 0
-125 -647 0
-125 124 0
126 -641 125 0
-126 641 0
-126 -125 0
127 -651 108 0
-127 651 0
-127 -108 0
128 645 665 0
-128 -645 0
-128 -665 0
129 641 -128 0
-129 -641 0
-129 128 0
130 -645 657 0
-130 645 0
-130 -657 0
131 641 -130 0
-131 -641 0
-131 130 0
132 129 131 0
-132 -129 0
-132 -131 0
133 665 -676 0
-133 -665 0
-133 676 0
134 676 132 0
-134 -676 0
-134 -132 0
135 133 134 0
-135 -133 0
-135 -134 0
136 -126 127 0
-136 126 0
-136 -127 0
137 -135 136 0
-137 135 0
-137 -136 0
138 641 -671 0
-138 -641 0
-138 671 0
139 671 -137 0
-139 -671 0
-139 137 0
140 138 139 0
-140 -138 0
-140 -139 0
141 -640 125 0
-141 640 0
-141 -125 0
142 -641 141 0
-142 641 0
-142 -141 0
143 -67 -123 0
-143 67 0
-143 123 0
144 640 -143 0
-144 -640 0
-144 143 0
145 -645 658 0
-145 645 0
-145 -658 0
146 641 -145 0
-146 -641 0
-146 145 0
147 645 666 0
-147 -645 0
-147 -666 0
148 641 -147 0
-148 -641 0
-148 147 0
149 146 148 0
-149 -146 0
-149 -148 0
150 658 -679 0
-150 -658 0
-150 679 0
151 679 149 0
-151 -679 0
-151 -149 0
152 150 151 0
-152 -150 0
-152 -151 0
153 -142 144 0
-153 142 0
-153 -144 0
154 -152 153 0
-154 152 0
-154 -153 0
155 640 -668 0
-155 -640 0
-155 668 0
156 668 -154 0
-156 -668 0
-156 154 0
157 155 156 0
-157 -155 0
-157 -156 0
158 640 642 0
-158 -640 0
-158 -642 0
159 -122 -158 0
-159 122 0
-159 158 0
160 -86 -159 0
-160 86 0
-160 159 0
161 -67 -160 0
-161 67 0
-161 160 0
162 -641 161 0
-162 641 0
-162 -161 0
163 640 -125 0
-163 -640 0
-163 125 0
164 -642 163 0
-164 642 0
-164 -163 0
165 -645 659 0
-165 645 0
-165 -659 0
166 641 -165 0
-166 -641 0
-166 165 0
167 641 645 0
-167 -641 0
-167 -645 0
168 639 -167 0
-168 -639 0
-168 167 0
169 166 168 0
-169 -166 0
-169 -168 0
170 639 -680 0
-170 -639 0
-170 680 0
171 680 169 0
-171 -680 0
-171 -169 0
172 170 171 0
-172 -170 0
-172 -171 0
173 -162 164 0
-173 162 0
-173 -164 0
174 -172 173 0
-174 172 0
-174 -173 0
175 646 -667 0
-175 -646 0
-175 667 0
176 667 -174 0
-176 -667 0
-176 174 0
177 175 176 0
-177 -175 0
-177 -176 0
178 -646 647 0
-178 646 0
-178 -647 0
179 643 -178 0
-179 -643 0
-179 178 0
180 -641 -179 0
-180 641 0
-180 179 0
181 -643 -644 0
-181 643 0
-181 644 0
182 -641 -181 0
-182 641 0
-182 181 0
183 -160 -180 0
-183 160 0
-183 180 0
184 182 183 0
-184 -182 0
-184 -183 0
185 646 -675 0
-185 -646 0
-185 675 0
186 675 184 0
-186 -675 0
-186 -184 0
187 185 186 0
-187 -185 0
-187 -186 0
188 41 -45 0
-188 -41 0
-188 45 0
189 57 61 0
-189 -57 0
-189 -61 0
190 -77 81 0
-190 77 0
-190 -81 0
191 -94 98 0
-191 94 0
-191 -98 0
192 -113 117 0
-192 113 0
-192 -117 0
193 -132 136 0
-193 132 0
-193 -136 0
194 -149 153 0
-194 149 0
-194 -153 0
195 -169 173 0
-195 169 0
-195 -173 0
196 3 -6 0
-196 -3 0
-196 6 0
197 -3 6 0
-197 3 0
-197 -6 0
198 196 197 0
-198 -196 0
-198 -197 0
199 9 196 0
-199 -9 0
-199 -196 0
200 -9 -196 0
-200 9 0
-200 196 0
201 199 200 0
-201 -199 0
-201 -200 0
202 9 -201 0
-202 -9 0
-202 201 0
203 -9 201 0
-203 9 0
-203 -201 0
204 202 203 0
-204 -202 0
-204 -203 0
205 12 196 0
-205 -12 0
-205 -196 0
206 -12 -196 0
-206 12 0
-206 196 0
207 205 206 0
-207 -205 0
-207 -206 0
208 12 -207 0
-208 -12 0
-208 207 0
209 -12 207 0
-209 12 0
-209 -207 0
210 208 209 0
-210 -208 0
-210 -209 0
211 18 196 0
-211 -18 0
-211 -196 0
212 -18 -196 0
-212 18 0
-212 196 0
213 211 212 0
-213 -211 0
-213 -212 0
214 15 -213 0
-214 -15 0
-214 213 0
215 -15 213 0
-215 15 0
-215 -213 0
216 214 215 0
-216 -214 0
-216 -215 0
217 15 -18 0
-217 -15 0
-217 18 0
218 -15 18 0
-218 15 0
-218 -18 0
219 -196 218 0
-219 196 0
-219 -218 0
220 196 -217 0
-220 -196 0
-220 217 0
221 219 220 0
-221 -219 0
-221 -220 0
222 21 -221 0
-222 -21 0
-222 221 0
223 -21 221 0
-223 21 0
-223 -221 0
224 222 223 0
-224 -222 0
-224 -223 0
225 21 -224 0
-225 -21 0
-225 224 0
226 -21 224 0
-226 21 0
-226 -224 0
227 225 226 0
-227 -225 0
-227 -226 0
228 27 -221 0
-228 -27 0
-228 221 0
229 -27 221 0
-229 27 0
-229 -221 0
230 228 229 0
-230 -228 0
-230 -229 0
231 24 -230 0
-231 -24 0
-231 230 0
232 -24 230 0
-232 24 0
-232 -230 0
233 231 232 0
-233 -231 0
-233 -232 0
234 24 -27 0
-234 -24 0
-234 27 0
235 -24 27 0
-235 24 0
-235 -27 0
236 221 235 0
-236 -221 0
-236 -235 0
237 -221 -234 0
-237 221 0
-237 234 0
238 236 237 0
-238 -236 0
-238 -237 0
239 30 -238 0
-239 -30 0
-239 238 0
240 -30 238 0
-240 30 0
-240 -238 0
241 239 240 0
-241 -239 0
-241 -240 0
242 30 -241 0
-242 -30 0
-242 241 0
243 -30 241 0
-243 30 0
-243 -241 0
244 242 243 0
-244 -242 0
-244 -243 0
245 33 -238 0
-245 -33 0
-245 238 0
246 -33 238 0
-246 33 0
-246 -238 0
247 245 246 0
-247 -245 0
-247 -246 0
248 33 -247 0
-248 -33 0
-248 247 0
249 -33 247 0
-249 33 0
-249 -247 0
250 248 249 0
-250 -248 0
-250 -249 0
251 -644 -238 0
-251 644 0
-251 238 0
252 644 238 0
-252 -644 0
-252 -238 0
253 251 252 0
-253 -251 0
-253 -252 0
254 -644 -253 0
-254 644 0
-254 253 0
255 644 253 0
-255 -644 0
-255 -253 0
256 254 255 0
-256 -254 0
-256 -255 0
257 49 -238 0
-257 -49 0
-257 238 0
258 -49 238 0
-258 49 0
-258 -238 0
259 257 258 0
-259 -257 0
-259 -258 0
260 188 -259 0
-260 -188 0
-260 259 0
261 -188 259 0
-261 188 0
-261 -259 0
262 260 261 0
-262 -260 0
-262 -261 0
263 -49 188 0
-263 49 0
-263 -188 0
264 49 -188 0
-264 -49 0
-264 188 0
265 238 264 0
-265 -238 0
-265 -264 0
266 -238 -263 0
-266 238 0
-266 263 0
267 265 266 0
-267 -265 0
-267 -266 0
268 65 -267 0
-268 -65 0
-268 267 0
269 -65 267 0
-269 65 0
-269 -267 0
270 268 269 0
-270 -268 0
-270 -269 0
271 189 -270 0
-271 -189 0
-271 270 0
272 -189 270 0
-272 189 0
-272 -270 0
273 271 272 0
-273 -271 0
-273 -272 0
274 -65 189 0
-274 65 0
-274 -189 0
275 65 -189 0
-275 -65 0
-275 189 0
276 267 275 0
-276 -267 0
-276 -275 0
277 -267 -274 0
-277 267 0
-277 274 0
278 276 277 0
-278 -276 0
-278 -277 0
279 85 -278 0
-279 -85 0
-279 278 0
280 -85 278 0
-280 85 0
-280 -278 0
281 279 280 0
-281 -279 0
-281 -280 0
282 -190 -281 0
-282 190 0
-282 281 0
283 190 281 0
-283 -190 0
-283 -281 0
284 282 283 0
-284 -282 0
-284 -283 0
285 -85 -190 0
-285 85 0
-285 190 0
286 85 190 0
-286 -85 0
-286 -190 0
287 278 286 0
-287 -278 0
-287 -286 0
288 -278 -285 0
-288 278 0
-288 285 0
289 287 288 0
-289 -287 0
-289 -288 0
290 102 -289 0
-290 -102 0
-290 289 0
291 -102 289 0
-291 102 0
-291 -289 0
292 290 291 0
-292 -290 0
-292 -291 0
293 -191 -292 0
-293 191 0
-293 292 0
294 191 292 0
-294 -191 0
-294 -292 0
295 293 294 0
-295 -293 0
-295 -294 0
296 -102 -191 0
-296 102 0
-296 191 0
297 102 191 0
-297 -102 0
-297 -191 0
298 289 297 0
-298 -289 0
-298 -297 0
299 -289 -296 0
-299 289 0
-299 296 0
300 298 299 0
-300 -298 0
-300 -299 0
301 121 -300 0
-301 -121 0
-301 300 0
302 -121 300 0
-302 121 0
-302 -300 0
303 301 302 0
-303 -301 0
-303 -302 0
304 -192 -303 0
-304 192 0
-304 303 0
305 192 303 0
-305 -192 0
-305 -303 0
306 304 305 0
-306 -304 0
-306 -305 0
307 -121 -192 0
-307 121 0
-307 192 0
308 121 192 0
-308 -121 0
-308 -192 0
309 300 308 0
-309 -300 0
-309 -308 0
310 -300 -307 0
-310 300 0
-310 307 0
311 309 310 0
-311 -309 0
-311 -310 0
312 140 -311 0
-312 -140 0
-312 311 0
313 -140 311 0
-313 140 0
-313 -311 0
314 312 313 0
-314 -312 0
-314 -313 0
315 -193 -314 0
-315 193 0
-315 314 0
316 193 314 0
-316 -193 0
-316 -314 0
317 315 316 0
-317 -315 0
-317 -316 0
318 -140 -193 0
-318 140 0
-318 193 0
319 140 193 0
-319 -140 0
-319 -193 0
320 311 319 0
-320 -311 0
-320 -319 0
321 -311 -318 0
-321 311 0
-321 318 0
322 320 321 0
-322 -320 0
-322 -321 0
323 157 -322 0
-323 -157 0
-323 322 0
324 -157 322 0
-324 157 0
-324 -322 0
325 323 324 0
-325 -323 0
-325 -324 0
326 -194 -325 0
-326 194 0
-326 325 0
327 194 325 0
-327 -194 0
-327 -325 0
328 326 327 0
-328 -326 0
-328 -327 0
329 -157 -194 0
-329 157 0
-329 194 0
330 157 194 0
-330 -157 0
-330 -194 0
331 322 330 0
-331 -322 0
-331 -330 0
332 -322 -329 0
-332 322 0
-332 329 0
333 331 332 0
-333 -331 0
-333 -332 0
334 177 -333 0
-334 -177 0
-334 333 0
335 -177 333 0
-335 177 0
-335 -333 0
336 334 335 0
-336 -334 0
-336 -335 0
337 -195 -336 0
-337 195 0
-337 336 0
338 195 336 0
-338 -195 0
-338 -336 0
339 337 338 0
-339 -337 0
-339 -338 0
340 -177 -195 0
-340 177 0
-340 195 0
341 177 195 0
-341 -177 0
-341 -195 0
342 333 341 0
-342 -333 0
-342 -341 0
343 -333 -340 0
-343 333 0
-343 340 0
344 342 343 0
-344 -342 0
-344 -343 0
345 187 -344 0
-345 -187 0
-345 344 0
346 -187 344 0
-346 187 0
-346 -344 0
347 345 346 0
-347 -345 0
-347 -346 0
348 184 -347 0
-348 -184 0
-348 347 0
349 -184 347 0
-349 184 0
-349 -347 0
350 348 349 0
-350 -348 0
-350 -349 0
351 184 -187 0
-351 -184 0
-351 187 0
352 -184 187 0
-352 184 0
-352 -187 0
353 344 352 0
-353 -344 0
-353 -352 0
354 -344 -351 0
-354 344 0
-354 351 0
355 353 354 0
-355 -353 0
-355 -354 0
356 -198 -204 0
-356 198 0
-356 204 0
357 -210 356 0
-357 210 0
-357 -356 0
358 210 -356 0
-358 -210 0
-358 356 0
359 357 358 0
-359 -357 0
-359 -358 0
360 -210 -356 0
-360 210 0
-360 356 0
361 -216 360 0
-361 216 0
-361 -360 0
362 216 -360 0
-362 -216 0
-362 360 0
363 361 362 0
-363 -361 0
-363 -362 0
364 -216 -360 0
-364 216 0
-364 360 0
365 -227 364 0
-365 227 0
-365 -364 0
366 227 -364 0
-366 -227 0
-366 364 0
367 365 366 0
-367 -365 0
-367 -366 0
368 -227 -364 0
-368 227 0
-368 364 0
369 -233 368 0
-369 233 0
-369 -368 0
370 233 -368 0
-370 -233 0
-370 368 0
371 369 370 0
-371 -369 0
-371 -370 0
372 -233 -368 0
-372 233 0
-372 368 0
373 -244 372 0
-373 244 0
-373 -372 0
374 244 -372 0
-374 -244 0
-374 372 0
375 373 374 0
-375 -373 0
-375 -374 0
376 -244 -372 0
-376 244 0
-376 372 0
377 -250 376 0
-377 250 0
-377 -376 0
378 250 -376 0
-378 -250 0
-378 376 0
379 377 378 0
-379 -377 0
-379 -378 0
380 -250 -376 0
-380 250 0
-380 376 0
381 -256 380 0
-381 256 0
-381 -380 0
382 256 -380 0
-382 -256 0
-382 380 0
383 381 382 0
-383 -381 0
-383 -382 0
384 -256 -380 0
-384 256 0
-384 380 0
385 -262 384 0
-385 262 0
-385 -384 0
386 262 -384 0
-386 -262 0
-386 384 0
387 385 386 0
-387 -385 0
-387 -386 0
388 -262 -384 0
-388 262 0
-388 384 0
389 -273 388 0
-389 273 0
-389 -388 0
390 273 -388 0
-390 -273 0
-390 388 0
391 389 390 0
-391 -389 0
-391 -390 0
392 -273 -388 0
-392 273 0
-392 388 0
393 -284 392 0
-393 284 0
-393 -392 0
394 284 -392 0
-394 -284 0
-394 392 0
395 393 394 0
-395 -393 0
-395 -394 0
396 -284 -392 0
-396 284 0
-396 392 0
397 -295 396 0
-397 295 0
-397 -396 0
398 295 -396 0
-398 -295 0
-398 396 0
399 397 398 0
-399 -397 0
-399 -398 0
400 -295 -396 0
-400 295 0
-400 396 0
401 -306 400 0
-401 306 0
-401 -400 0
402 306 -400 0
-402 -306 0
-402 400 0
403 401 402 0
-403 -401 0
-403 -402 0
404 -306 -400 0
-404 306 0
-404 400 0
405 -317 404 0
-405 317 0
-405 -404 0
406 317 -404 0
-406 -317 0
-406 404 0
407 405 406 0
-407 -405 0
-407 -406 0
408 -317 -404 0
-408 317 0
-408 404 0
409 -328 408 0
-409 328 0
-409 -408 0
410 328 -408 0
-410 -328 0
-410 408 0
411 409 410 0
-411 -409 0
-411 -410 0
412 -328 -408 0
-412 328 0
-412 408 0
413 -339 412 0
-413 339 0
-413 -412 0
414 339 -412 0
-414 -339 0
-414 412 0
415 413 414 0
-415 -413 0
-415 -414 0
416 -339 -412 0
-416 339 0
-416 412 0
417 -350 416 0
-417 350 0
-417 -416 0
418 350 -416 0
-418 -350 0
-418 416 0
419 417 418 0
-419 -417 0
-419 -418 0
420 210 -355 0
-420 -210 0
-420 355 0
421 355 359 0
-421 -355 0
-421 -359 0
422 420 421 0
-422 -420 0
-422 -421 0
423 216 -355 0
-423 -216 0
-423 355 0
424 355 363 0
-424 -355 0
-424 -363 0
425 423 424 0
-425 -423 0
-425 -424 0
426 227 -355 0
-426 -227 0
-426 355 0
427 355 367 0
-427 -355 0
-427 -367 0
428 426 427 0
-428 -426 0
-428 -427 0
429 233 -355 0
-429 -233 0
-429 355 0
430 355 371 0
-430 -355 0
-430 -371 0
431 429 430 0
-431 -429 0
-431 -430 0
432 244 -355 0
-432 -244 0
-432 355 0
433 355 375 0
-433 -355 0
-433 -375 0
434 432 433 0
-434 -432 0
-434 -433 0
435 250 -355 0
-435 -250 0
-435 355 0
436 355 379 0
-436 -355 0
-436 -379 0
437 435 436 0
-437 -435 0
-437 -436 0
438 256 -355 0
-438 -256 0
-438 355 0
439 355 383 0
-439 -355 0
-439 -383 0
440 438 439 0
-440 -438 0
-440 -439 0
441 262 -355 0
-441 -262 0
-441 355 0
442 355 387 0
-442 -355 0
-442 -387 0
443 441 442 0
-443 -441 0
-443 -442 0
444 273 -355 0
-444 -273 0
-444 355 0
445 355 391 0
-445 -355 0
-445 -391 0
446 444 445 0
-446 -444 0
-446 -445 0
447 284 -355 0
-447 -284 0
-447 355 0
448 355 395 0
-448 -355 0
-448 -395 0
449 447 448 0
-449 -447 0
-449 -448 0
450 295 -355 0
-450 -295 0
-450 355 0
451 355 399 0
-451 -355 0
-451 -399 0
452 450 451 0
-452 -450 0
-452 -451 0
453 306 -355 0
-453 -306 0
-453 355 0
454 355 403 0
-454 -355 0
-454 -403 0
455 453 454 0
-455 -453 0
-455 -454 0
456 317 -355 0
-456 -317 0
-456 355 0
457 355 407 0
-457 -355 0
-457 -407 0
458 456 457 0
-458 -456 0
-458 -457 0
459 328 -355 0
-459 -328 0
-459 355 0
460 355 411 0
-460 -355 0
-460 -411 0
461 459 460 0
-461 -459 0
-461 -460 0
462 339 -355 0
-462 -339 0
-462 355 0
463 355 415 0
-463 -355 0
-463 -415 0
464 462 463 0
-464 -462 0
-464 -463 0
465 350 -355 0
-465 -350 0
-465 355 0
466 355 419 0
-466 -355 0
-466 -419 0
467 465 466 0
-467 -465 0
-467 -466 0
468 -422 -425 0
-468 422 0
-468 425 0
469 428 -468 0
-469 -428 0
-469 468 0
470 428 469 0
-470 -428 0
-470 -469 0
471 431 470 0
-471 -431 0
-471 -470 0
472 431 471 0
-472 -431 0
-472 -471 0
473 -434 472 0
-473 434 0
-473 -472 0
474 -437 -473 0
-474 437 0
-474 473 0
475 440 -474 0
-475 -440 0
-475 474 0
476 440 475 0
-476 -440 0
-476 -475 0
477 443 476 0
-477 -443 0
-477 -476 0
478 443 477 0
-478 -443 0
-478 -477 0
479 -446 478 0
-479 446 0
-479 -478 0
480 -449 -479 0
-480 449 0
-480 479 0
481 452 -480 0
-481 -452 0
-481 480 0
482 452 481 0
-482 -452 0
-482 -481 0
483 455 482 0
-483 -455 0
-483 -482 0
484 455 483 0
-484 -455 0
-484 -483 0
485 -458 484 0
-485 458 0
-485 -484 0
486 -461 -485 0
-486 461 0
-486 485 0
487 -464 -486 0
-487 464 0
-487 486 0
488 -467 -487 0
-488 467 0
-488 487 0
489 -667 -668 0
-489 667 0
-489 668 0
490 667 668 0
-490 -667 0
-490 -668 0
491 -669 -670 0
-491 669 0
-491 670 0
492 669 670 0
-492 -669 0
-492 -670 0
493 -489 -491 0
-493 489 0
-493 491 0
494 489 491 0
-494 -489 0
-494 -491 0
495 490 492 0
-495 -490 0
-495 -492 0
496 -490 -492 0
-496 490 0
-496 492 0
497 494 -495 0
-497 -494 0
-497 495 0
498 -494 495 0
-498 494 0
-498 -495 0
499 -671 -672 0
-499 671 0
-499 672 0
500 671 672 0
-500 -671 0
-500 -672 0
501 -673 -674 0
-501 673 0
-501 674 0
502 673 674 0
-502 -673 0
-502 -674 0
503 -499 -501 0
-503 499 0
-503 501 0
504 499 501 0
-504 -499 0
-504 -501 0
505 500 502 0
-505 -500 0
-505 -502 0
506 -500 -502 0
-506 500 0
-506 502 0
507 504 -505 0
-507 -504 0
-507 505 0
508 -504 505 0
-508 504 0
-508 -505 0
509 -493 -503 0
-509 493 0
-509 503 0
510 493 503 0
-510 -493 0
-510 -503 0
511 498 508 0
-511 -498 0
-511 -508 0
512 -498 -508 0
-512 498 0
-512 508 0
513 510 -511 0
-513 -510 0
-513 511 0
514 -510 511 0
-514 510 0
-514 -511 0
515 -497 -507 0
-515 497 0
-515 507 0
516 497 507 0
-516 -497 0
-516 -507 0
517 496 506 0
-517 -496 0
-517 -506 0
518 -496 -506 0
-518 496 0
-518 506 0
519 516 -517 0
-519 -516 0
-519 517 0
520 -516 517 0
-520 516 0
-520 -517 0
521 -513 -515 0
-521 513 0
-521 515 0
522 513 515 0
-522 -513 0
-522 -515 0
523 514 -519 0
-523 -514 0
-523 519 0
524 -514 519 0
-524 514 0
-524 -519 0
525 512 520 0
-525 -512 0
-525 -520 0
526 -512 -520 0
-526 512 0
-526 520 0
527 -675 -676 0
-527 675 0
-527 676 0
528 675 676 0
-528 -675 0
-528 -676 0
529 -677 -678 0
-529 677 0
-529 678 0
530 677 678 0
-530 -677 0
-530 -678 0
531 -527 -529 0
-531 527 0
-531 529 0
532 527 529 0
-532 -527 0
-532 -529 0
533 528 530 0
-533 -528 0
-533 -530 0
534 -528 -530 0
-534 528 0
-534 530 0
535 532 -533 0
-535 -532 0
-535 533 0
536 -532 533 0
-536 532 0
-536 -533 0
537 -679 -680 0
-537 679 0
-537 680 0
538 679 680 0
-538 -679 0
-538 -680 0
539 -681 -682 0
-539 681 0
-539 682 0
540 681 682 0
-540 -681 0
-540 -682 0
541 -537 -539 0
-541 537 0
-541 539 0
542 537 539 0
-542 -537 0
-542 -539 0
543 538 540 0
-543 -538 0
-543 -540 0
544 -538 -540 0
-544 538 0
-544 540 0
545 542 -543 0
-545 -542 0
-545 543 0
546 -542 543 0
-546 542 0
-546 -543 0
547 -531 -541 0
-547 531 0
-547 541 0
548 531 541 0
-548 -531 0
-548 -541 0
549 536 546 0
-549 -536 0
-549 -546 0
550 -536 -546 0
-550 536 0
-550 546 0
551 548 -549 0
-551 -548 0
-551 549 0
552 -548 549 0
-552 548 0
-552 -549 0
553 -535 -545 0
-553 535 0
-553 545 0
554 535 545 0
-554 -535 0
-554 -545 0
555 534 544 0
-555 -534 0
-555 -544 0
556 -534 -544 0
-556 534 0
-556 544 0
557 554 -555 0
-557 -554 0
-557 555 0
558 -554 555 0
-558 554 0
-558 -555 0
559 -551 -553 0
-559 551 0
-559 553 0
560 551 553 0
-560 -551 0
-560 -553 0
561 552 -557 0
-561 -552 0
-561 557 0
562 -552 557 0
-562 552 0
-562 -557 0
563 550 558 0
-563 -550 0
-563 -558 0
564 -550 -558 0
-564 550 0
-564 558 0
565 -509 -547 0
-565 509 0
-565 547 0
566 509 547 0
-566 -509 0
-566 -547 0
567 524 562 0
-567 -524 0
-567 -562 0
568 -524 -562 0
-568 524 0
-568 562 0
569 566 -567 0
-569 -566 0
-569 567 0
570 -566 567 0
-570 566 0
-570 -567 0
571 522 560 0
-571 -522 0
-571 -560 0
572 -522 -560 0
-572 522 0
-572 560 0
573 526 564 0
-573 -526 0
-573 -564 0
574 572 -573 0
-574 -572 0
-574 573 0
575 -572 573 0
-575 572 0
-575 -573 0
576 -569 -571 0
-576 569 0
-576 571 0
577 569 571 0
-577 -569 0
-577 -571 0
578 570 -574 0
-578 -570 0
-578 574 0
579 -570 574 0
-579 570 0
-579 -574 0
580 568 575 0
-580 -568 0
-580 -575 0
581 -568 -575 0
-581 568 0
-581 575 0
582 -521 -559 0
-582 521 0
-582 559 0
583 521 559 0
-583 -521 0
-583 -559 0
584 -525 -563 0
-584 525 0
-584 563 0
585 525 563 0
-585 -525 0
-585 -563 0
586 583 -584 0
-586 -583 0
-586 584 0
587 -583 584 0
-587 583 0
-587 -584 0
588 -523 -561 0
-588 523 0
-588 561 0
589 523 561 0
-589 -523 0
-589 -561 0
590 518 556 0
-590 -518 0
-590 -556 0
591 589 -590 0
-591 -589 0
-591 590 0
592 -589 590 0
-592 589 0
-592 -590 0
593 -586 -588 0
-593 586 0
-593 588 0
594 586 588 0
-594 -586 0
-594 -588 0
595 587 -591 0
-595 -587 0
-595 591 0
596 -587 591 0
-596 587 0
-596 -591 0
597 585 592 0
-597 -585 0
-597 -592 0
598 -576 -582 0
-598 576 0
-598 582 0
599 576 582 0
-599 -576 0
-599 -582 0
600 577 -593 0
-600 -577 0
-600 593 0
601 -577 593 0
-601 577 0
-601 -593 0
602 -578 594 0
-602 578 0
-602 -594 0
603 578 -594 0
-603 -578 0
-603 594 0
604 579 -595 0
-604 -579 0
-604 595 0
605 -579 595 0
-605 579 0
-605 -595 0
606 -580 596 0
-606 580 0
-606 -596 0
607 580 -596 0
-607 -580 0
-607 596 0
608 581 -597 0
-608 -581 0
-608 597 0
609 -683 -684 0
-609 683 0
-609 684 0
610 683 684 0
-610 -683 0
-610 -684 0
611 -685 -686 0
-611 685 0
-611 686 0
612 685 686 0
-612 -685 0
-612 -686 0
613 -609 -611 0
-613 609 0
-613 611 0
614 609 611 0
-614 -609 0
-614 -611 0
615 610 612 0
-615 -610 0
-615 -612 0
616 -610 -612 0
-616 610 0
-616 612 0
617 614 -615 0
-617 -614 0
-617 615 0
618 -614 615 0
-618 614 0
-618 -615 0
619 -617 618 0
-619 617 0
-619 -618 0
620 617 -618 0
-620 -617 0
-620 618 0
621 -619 620 0
-621 619 0
-621 -620 0
622 619 -620 0
-622 -619 0
-622 620 0
623 565 613 0
-623 -565 0
-623 -613 0
624 605 623 0
-624 -605 0
-624 -623 0
625 -601 624 0
-625 601 0
-625 -624 0
626 -599 -622 0
-626 599 0
-626 622 0
627 607 626 0
-627 -607 0
-627 -626 0
628 603 -627 0
-628 -603 0
-628 627 0
629 -625 628 0
-629 625 0
-629 -628 0
630 598 621 0
-630 -598 0
-630 -621 0
631 -606 630 0
-631 606 0
-631 -630 0
632 602 631 0
-632 -602 0
-632 -631 0
633 600 -616 0
-633 -600 0
-633 616 0
634 -608 633 0
-634 608 0
-634 -633 0
635 -604 -634 0
-635 604 0
-635 634 0
636 632 -635 0
-636 -632 0
-636 635 0
637 -629 636 0
-637 629 0
-637 -636 0
638 -488 637 0
-638 488 0
-638 -637 0
687 0
638 0

